int: n_clientes = 2;
int: n_sitios = 2;
array[1..n_sitios] of float: costo_fijo_sitios = [2,2];
array[1..n_sitios] of int: capacidad_maxima_sitios = [6,6];
array[1..n_clientes] of float: demanda_clientes = [1.5,2.0];
array[1..n_clientes, 1..n_sitios] of float: beneficio_por_unidad = 
[|4.0,4.0
|4.5,4.5|];
